p cnf 15 21
-15 -9 -1 0
-14 12 -3 0
-14 12 2 0
-14 12 -1 0
-14 6 4 0
-14 5 1 0
-13 -12 -3 0
13 8 7 0
13 6 -3 0
-12 -11 -4 0
-12 10 7 0
-12 -6 -2 0
-11 10 -8 0
-11 8 4 0
11 -5 -2 0
10 5 -2 0
-9 5 -1 0
-9 -4 -3 0
9 4 -3 0
8 5 -1 0
6 5 2 0
